(set-logic ALL)
(declare-const value String)
(assert (not (< (str.len value) 0)))
(assert (not (= (+ 0 (str.indexof value " " 0)) (- 1))))
(assert (not (< (+ 0 (str.indexof value " " 0)) 0)))
(assert (not (< (+ (+ 0 (str.indexof value " " 0)) 1) 0)))
(assert (not (< (str.len value) 0)))
(assert (not (< (str.len (str.substr value (+ (+ 0 (str.indexof value " " 0)) 1) (- (str.len value) (+ (+ 0 (str.indexof value " " 0)) 1)))) 0)))
(assert (not (= (+ 0 (str.indexof (str.substr value (+ (+ 0 (str.indexof value " " 0)) 1) (- (str.len value) (+ (+ 0 (str.indexof value " " 0)) 1))) " " 0)) (- 1))))
(assert (not (< (+ 0 (str.indexof (str.substr value (+ (+ 0 (str.indexof value " " 0)) 1) (- (str.len value) (+ (+ 0 (str.indexof value " " 0)) 1))) " " 0)) 0)))
(assert (not (< (+ (+ 0 (str.indexof (str.substr value (+ (+ 0 (str.indexof value " " 0)) 1) (- (str.len value) (+ (+ 0 (str.indexof value " " 0)) 1))) " " 0)) 1) 0)))
(assert (not (< (str.len (str.substr value (+ (+ 0 (str.indexof value " " 0)) 1) (- (str.len value) (+ (+ 0 (str.indexof value " " 0)) 1)))) 0)))
(assert (not (< (str.len (str.substr (str.substr value (+ (+ 0 (str.indexof value " " 0)) 1) (- (str.len value) (+ (+ 0 (str.indexof value " " 0)) 1))) (+ (+ 0 (str.indexof (str.substr value (+ (+ 0 (str.indexof value " " 0)) 1) (- (str.len value) (+ (+ 0 (str.indexof value " " 0)) 1))) " " 0)) 1) (- (str.len (str.substr value (+ (+ 0 (str.indexof value " " 0)) 1) (- (str.len value) (+ (+ 0 (str.indexof value " " 0)) 1)))) (+ (+ 0 (str.indexof (str.substr value (+ (+ 0 (str.indexof value " " 0)) 1) (- (str.len value) (+ (+ 0 (str.indexof value " " 0)) 1))) " " 0)) 1)))) 0)))
(assert (not (= (+ 0 (str.indexof (str.substr (str.substr value (+ (+ 0 (str.indexof value " " 0)) 1) (- (str.len value) (+ (+ 0 (str.indexof value " " 0)) 1))) (+ (+ 0 (str.indexof (str.substr value (+ (+ 0 (str.indexof value " " 0)) 1) (- (str.len value) (+ (+ 0 (str.indexof value " " 0)) 1))) " " 0)) 1) (- (str.len (str.substr value (+ (+ 0 (str.indexof value " " 0)) 1) (- (str.len value) (+ (+ 0 (str.indexof value " " 0)) 1)))) (+ (+ 0 (str.indexof (str.substr value (+ (+ 0 (str.indexof value " " 0)) 1) (- (str.len value) (+ (+ 0 (str.indexof value " " 0)) 1))) " " 0)) 1))) " " 0)) (- 1))))
(check-sat)
(get-value (value))
